#######################################
### Exact MIP solver for the HHCRSP ###
#######################################
-- Instance file: new-instances/HHCRSP_50_10_88_0.8_R_RC.txt
-- Max threads: 4
-- Time limit: 999999 seconds
-- Use initial solution: No
Trivial flow violations prevented generating 6025 variables.
Model exported.
Version identifier: 20.1.0.0 | 2020-11-10 | 9bedb6d68
CPXPARAM_Threads                                 4
CPXPARAM_TimeLimit                               999999
Parallel mode: deterministic, using up to 4 threads for concurrent optimization:
 * Starting dual Simplex on 1 thread...
 * Starting Barrier on 3 threads...
Tried aggregator 1 time.
LP Presolve eliminated 1440 rows and 443 columns.
Reduced LP has 7520 rows, 7261 columns, and 64758 nonzeros.
Presolve time = 0.04 sec. (18.65 ticks)
Symmetry aggregator did 7114 additional substitutions.
Initializing dual steep norms . . .

Iteration log . . .
Iteration:     1   Dual objective     =             1.333333

Dual crossover.
  Dual:  Fixing 61 variables.
       60 DMoves:  Infeasibility  1.17128624e-14  Objective  1.15000000e+02
        0 DMoves:  Infeasibility  7.82708185e-15  Objective  1.15000000e+02
  Dual:  Pushed 1, exchanged 60.
  Primal:  Fixing 49 variables.
       48 PMoves:  Infeasibility  4.44089210e-16  Objective  1.15000000e+02
        0 PMoves:  Infeasibility  4.44089210e-16  Objective  1.15000000e+02
  Primal:  Pushed 23, exchanged 26.

Dual simplex solved model.


Solution status from MIP model:
-- Processing time: 0.075 sec.
-- Memory used: 73.6182 MB
-- Best bound: inf
-- Obj value: 115
-- Gap: inf%
-- Total distance: 345
-- Total tardiness: 0
-- Largest tardiness: 0
